(set-info :smt-lib-version 2.6)
(set-logic QF_LIA)
(set-info :category "industrial")
(set-info :status sat)
(declare-fun x0 () Int)
(declare-fun x1 () Int)
(declare-fun x10 () Int)
(declare-fun x11 () Int)
(declare-fun x12 () Int)
(declare-fun x13 () Int)
(declare-fun x14 () Int)
(declare-fun x15 () Int)
(declare-fun x16 () Int)
(declare-fun x17 () Int)
(declare-fun x18 () Int)
(declare-fun x19 () Int)
(declare-fun x2 () Int)
(declare-fun x3 () Int)
(declare-fun x4 () Int)
(declare-fun x5 () Int)
(declare-fun x6 () Int)
(declare-fun x7 () Int)
(declare-fun x8 () Int)
(declare-fun x9 () Int)
(assert (let ((?v_18 (* 1 x0)) (?v_3 (* 0 x1)) (?v_0 (* 0 x11)) (?v_2 (* 0 x15)) (?v_6 (* 0 x4)) (?v_7 (* 0 x6)) (?v_46 (* 0 x8)) (?v_39 (* 0 x9)) (?v_12 (* 0 x10)) (?v_9 (* 0 x12)) (?v_4 (* 0 x14)) (?v_16 (* 0 x16)) (?v_13 (* 0 x17)) (?v_5 (* 0 x18)) (?v_17 (* 1 x2)) (?v_21 (* 1 x3)) (?v_19 (* 0 x19)) (?v_14 (* 0 x3)) (?v_33 (* 1 x1)) (?v_31 (* 1 x16)) (?v_20 (* 0 x5)) (?v_25 (* 1 x17)) (?v_27 (* 0 x7)) (?v_52 (* 1 x18)) (?v_56 (* 1 x4)) (?v_26 (* 1 x5)) (?v_22 (* 1 x8)) (?v_57 (* 1 x10)) (?v_29 (* 1 x11)) (?v_24 (* 0 x13)) (?v_37 (* 0 x2)) (?v_38 (* 1 x6)) (?v_30 (* 1 x15))) (let ((?v_47 (+ ?v_27 ?v_17)) (?v_50 (* 0 x0)) (?v_45 (* 1 x19)) (?v_55 (* 1 x9)) (?v_54 (* 1 x14)) (?v_40 (+ ?v_27 ?v_39)) (?v_53 (* 1 x13)) (?v_8 (* (- 1) x10)) (?v_1 (* (- 1) x13)) (?v_51 (* (- 1) x16)) (?v_42 (* (- 1) x17)) (?v_36 (* (- 1) x18)) (?v_23 (* (- 1) x1)) (?v_41 (* (- 1) x5)) (?v_49 (* (- 1) x8)) (?v_11 (* (- 1) x12)) (?v_10 (* (- 1) x9)) (?v_28 (* (- 1) x11))) (let ((?v_44 (+ ?v_27 ?v_10)) (?v_15 (* (- 1) x0)) (?v_48 (* (- 1) x14)) (?v_34 (* (- 1) x7)) (?v_32 (* (- 2) x0)) (?v_35 (+ ?v_22 ?v_10)) (?v_43 (* (- 1) x4)) (?v_58 (* (- 1) x6))) (and (<= (+ ?v_18 (+ ?v_3 (+ ?v_8 (+ ?v_0 (+ ?v_1 (+ ?v_2 (+ ?v_51 (+ ?v_42 (+ ?v_36 (+ (* (- 1) x3) (+ ?v_6 (+ ?v_7 (+ ?v_46 ?v_39))))))))))))) 0) (<= (+ ?v_23 (+ ?v_12 (+ ?v_0 (+ ?v_9 (+ ?v_1 (+ ?v_41 (+ ?v_49 (+ ?v_4 (+ ?v_2 (+ ?v_16 (+ ?v_13 (+ ?v_5 (+ ?v_17 ?v_21))))))))))))) 0) (<= (+ ?v_3 (+ (* (- 2) x10) (+ ?v_11 (+ ?v_0 (+ ?v_1 (+ ?v_4 (+ ?v_5 (+ ?v_19 (+ ?v_14 (+ ?v_6 (+ ?v_7 ?v_10))))))))))) (- 1)) (<= (+ ?v_33 (+ ?v_8 (+ ?v_28 (+ ?v_9 (+ ?v_1 (+ ?v_31 (+ ?v_5 (+ ?v_6 (+ ?v_20 (+ ?v_7 (+ ?v_25 ?v_44))))))))))) 1) (<= (+ ?v_15 (+ ?v_3 (+ ?v_11 (+ ?v_12 (+ ?v_0 (+ ?v_4 (+ ?v_13 (+ ?v_14 (+ ?v_52 (+ ?v_56 (* 3 x8))))))))))) (- 1)) (<= (+ ?v_15 (+ ?v_48 (+ (* (- 2) x17) (+ ?v_12 (+ ?v_0 (+ ?v_16 (+ ?v_6 (+ ?v_7 (+ ?v_17 (+ ?v_26 (+ (* 1 x7) ?v_22))))))))))) 0) (<= (+ ?v_18 (+ ?v_3 (+ ?v_57 (+ ?v_29 (+ ?v_24 (+ ?v_4 (+ ?v_19 (+ ?v_37 (+ ?v_20 (+ ?v_21 (+ ?v_38 ?v_22))))))))))) 1) (<= (+ ?v_23 (+ ?v_11 (+ ?v_0 (+ ?v_24 (+ ?v_30 (+ ?v_5 (+ ?v_19 (+ ?v_6 (+ ?v_25 (+ ?v_21 (+ ?v_26 ?v_47))))))))))) 0) (<= (+ ?v_50 (+ ?v_12 (+ ?v_28 (+ ?v_9 (+ ?v_34 (+ ?v_24 (+ ?v_2 (+ ?v_16 (+ ?v_6 (+ ?v_45 (+ ?v_22 ?v_55))))))))))) (- 1)) (<= (+ ?v_32 (+ ?v_3 (+ ?v_8 (+ ?v_29 (+ ?v_24 (+ ?v_4 (+ ?v_30 (+ ?v_31 (+ ?v_13 (+ ?v_5 (+ ?v_19 (+ ?v_6 ?v_35)))))))))))) (- 1)) (<= (+ ?v_32 (+ ?v_33 (+ ?v_43 (+ ?v_12 (+ ?v_34 (+ ?v_0 (+ ?v_24 (+ ?v_16 (+ ?v_54 (+ ?v_14 (+ ?v_20 ?v_35))))))))))) 0) (<= (+ ?v_3 (+ ?v_11 (+ ?v_36 (+ ?v_24 (+ ?v_4 (+ ?v_2 (+ ?v_31 (+ ?v_19 (+ ?v_25 (+ ?v_37 (+ ?v_26 (+ ?v_38 ?v_40)))))))))))) 0) (<= (+ (* (- 1) x19) (+ ?v_12 (+ ?v_4 (+ ?v_13 (+ ?v_5 (+ ?v_29 (+ ?v_1 (+ ?v_37 (+ ?v_7 (+ ?v_21 ?v_40)))))))))) 1) (<= (+ ?v_9 (+ ?v_4 (+ ?v_2 (+ ?v_36 (+ ?v_41 (+ ?v_58 (+ ?v_13 (+ (* 2 x10) (+ ?v_34 (+ ?v_24 (+ ?v_37 ?v_35))))))))))) (- 1)) (<= (+ ?v_32 (+ (* 2 x1) (+ ?v_28 (+ ?v_4 (+ ?v_2 (+ ?v_16 (+ ?v_42 (+ ?v_43 (+ ?v_5 (+ ?v_19 (+ ?v_37 ?v_44))))))))))) 1) (<= (+ ?v_23 (+ ?v_2 (+ (* 1 x12) (+ (* 2 x16) (+ ?v_42 (+ ?v_45 (+ ?v_14 (+ ?v_26 (+ ?v_7 ?v_40))))))))) (- 1)) (<= (+ ?v_18 (+ ?v_9 (+ ?v_4 (+ ?v_2 (+ ?v_31 (+ ?v_36 (+ ?v_6 (+ ?v_20 (+ ?v_46 (+ ?v_45 (+ ?v_21 ?v_47))))))))))) 0) (<= (+ ?v_3 (+ ?v_8 (+ ?v_28 (+ ?v_11 (+ ?v_48 (+ ?v_49 (+ ?v_24 (+ ?v_31 (+ ?v_19 (+ ?v_14 (+ (* 2 x2) ?v_39))))))))))) 1) (<= (+ ?v_50 (+ ?v_3 (+ ?v_11 (+ ?v_30 (+ ?v_51 (+ ?v_43 (+ ?v_41 (+ ?v_12 (+ ?v_14 (+ ?v_29 (+ ?v_53 (+ ?v_52 ?v_39)))))))))))) 1) (<= (+ ?v_50 (+ ?v_23 (+ ?v_49 (+ ?v_12 (+ ?v_13 (+ ?v_20 (+ ?v_53 (+ ?v_54 (+ ?v_30 ?v_55))))))))) 1) (<= (+ ?v_3 (+ ?v_9 (+ ?v_4 (+ ?v_30 (+ ?v_36 (+ ?v_13 (+ ?v_19 (+ ?v_14 (+ ?v_20 (+ ?v_56 (+ ?v_7 (+ ?v_57 (+ (* (- 2) x7) (+ ?v_1 (+ ?v_17 ?v_39))))))))))))))) 0) (<= (+ ?v_3 (+ (* (- 3) x11) (+ ?v_11 (+ ?v_1 (+ ?v_51 (+ ?v_54 (+ ?v_36 (+ ?v_58 (+ ?v_13 (+ ?v_34 (+ ?v_46 (+ ?v_17 (+ ?v_26 ?v_55))))))))))))) (- 1)) (<= (+ ?v_23 (+ ?v_36 (+ ?v_49 (+ ?v_12 (+ ?v_19 (+ ?v_14 (+ ?v_27 (+ ?v_29 (+ ?v_53 (+ ?v_30 (+ ?v_31 (+ ?v_17 (+ ?v_56 (+ ?v_26 ?v_10)))))))))))))) 0))))))
(check-sat)
(exit)
